32      10      
18      20      11      18      12      13      19      20      11      14      
0       0       0       0       0       0       0       0       0       0       0       11      2       3       4       5       7       8       9       12      13      14      17      
8       18      0       0       0       0       0       0       17      0       0       5       31      26      19      15      6       
7       8       0       0       0       0       0       0       0       0       8       5       25      18      16      15      11      
1       0       20      0       0       0       0       0       0       11      0       3       18      15      10      
8       0       0       0       18      0       13      0       0       0       0       3       23      16      15      
6       0       0       0       0       0       0       0       20      11      0       3       25      22      21      
1       0       17      0       0       0       0       0       0       0       11      2       23      15      
1       18      0       0       0       0       0       0       13      0       0       2       23      15      
6       0       0       0       0       2       13      0       0       0       0       2       24      15      
1       0       0       11      0       12      0       0       0       0       0       4       30      28      25      24      
3       0       0       0       0       0       0       19      0       0       1       3       30      24      20      
5       0       0       10      0       0       0       0       5       0       0       3       30      24      20      
2       15      0       0       0       2       0       0       0       0       0       4       30      29      27      26      
3       0       0       1       0       0       0       0       0       0       13      3       30      28      23      
10      0       0       0       0       0       0       0       0       8       12      2       30      20      
7       0       0       0       7       0       0       6       0       0       0       3       29      27      26      
1       0       0       0       0       9       0       0       0       5       0       3       30      28      25      
10      0       0       0       12      0       0       0       0       0       11      2       28      23      
3       18      0       0       0       0       0       17      0       0       0       1       20      
3       0       0       10      8       0       0       0       0       0       0       3       29      28      27      
1       0       20      0       10      0       0       0       0       0       0       3       30      28      27      
8       0       19      0       0       0       6       0       0       0       0       1       23      
1       0       19      0       0       0       13      0       0       0       0       1       24      
1       0       0       3       0       0       0       0       0       7       0       1       27      
1       0       9       0       0       0       0       0       0       11      0       1       29      
5       0       0       0       18      0       0       18      0       0       0       1       28      
1       0       0       0       0       0       0       15      15      0       0       1       32      
7       0       0       0       0       0       7       12      0       0       0       1       32      
3       0       0       0       0       12      0       0       20      0       0       1       32      
6       0       0       0       0       7       10      0       0       0       0       1       32      
10      18      0       11      0       0       0       0       0       0       0       1       32      
0       0       0       0       0       0       0       0       0       0       0       0       
